(declare-fun v0 () (_ BitVec 3))
(declare-fun v2 () (_ BitVec 16))
(assert
(let (($e1 (_ bv1 1)))
(let (($e11 (_ bv1 2)))
(let (($e14 (_ bv1   8)))
(let (($e17 (_ bv1     15)))
(let (($e36 (_ bv1   9)))
(let (($e821 (concat $e14  v0)))
(let (($e1189 (concat $e17 false  )))
(let (($e1190      (bvult $e1189 v2)         ))
(let (($e1601 (concat $e36        $e11 )))
(let (($e1602 (bvand $e821 $e1601)))
(let (($e1603 (concat v0   $e14  )))
(let (($e1604 (bvand $e1603 $e1602)))
              (ite        $e1190  $e1602 $e1604)
                                                                                                                                                                                                                                                                                                                                                                                                                                                                                                                                                                                                                                                                                                                                                                                                                                                                                                                                                                                                                                                                                                                                                                                                                                                                                                                                                                                                                                                                                                                                                                                                                                                                                                                                                                                                                                                                                                                                                                                                                                                                                                                                                                                                                                                                                                                                                                                                                                                                                                                                                                                                                                                                                                                                                                                                                                                                                                                                                                                                                                                                                                                                                                                                                                                                                                                                                                                                                                                                                                                                                                                                                                                                                                                                                                                                                                                                                                                                                                                                                                                                                                                                                                                                                                                                                                                                                                                                                                                                                                                                                                                                                                                                                                                                                                                                                                                                                                                                                                                                                                                                                                                                                                                                                                                                                                                                                                                                                                                                                                                                                                                                                                                                                                                                                                                                                                                                                                                                                                                                                                                                                                                                                                                                                                                                                                                                                                                                                                                                                           ))))                                                                                                                                                                                                                                                                                                                                                                                                                          ))                                                                                                                                                                                                                                                                                                                                                                               )                                                                                                                                                                                                                                                                                                                                                                                                                                                                                                                                                                                                                                                                                                                                                                                    )                  )  )  )         ))
